CMD:
./solvers/bin/cadical --plain --no-reduce -t 1600 ./data/cnfs//139444p22/139444p22.21.cnf

c --- [ banner ] -------------------------------------------------------------
c 
c CaDiCaL SAT Solver
c Copyright (c) 2016-2024
c A. Biere, M. Fleury, N. Froleyks, K. Fazekas, F. Pollitt, T. Faller
c JKU Linz, University of Freiburg, TU Wien
c 
c Version 2.1.3 5296d3d2a9bf48c154ab2acb5e44625776d821bf
c g++ (Gentoo 12.3.1_p20230526 p2) 12.3.1 20230526 -Wall -Wextra -O3 -DNDEBUG
c Sat Aug 9 07:26:21 PDT 2025 Linux cedar2.int.cedar.computecanada.ca 5.14.0-362.24.2.el9_3.x86_64 x86_64
c 
c --- [ limit ] --------------------------------------------------------------
c 
c setting time limit to 1600 seconds real time (due to '-t 1600')
c 
c --- [ parsing input ] ------------------------------------------------------
c 
c reading DIMACS file from './data/cnfs//139444p22/139444p22.21.cnf'
c opening file to read './data/cnfs//139444p22/139444p22.21.cnf'
c found 'p cnf 181076 522974' header
c parsed 522974 clauses in 0.09 seconds process time
c 
c --- [ options ] ------------------------------------------------------------
c 
c   --compact=false                (different from default 'true')
c   --decompose=false              (different from default 'true')
c   --deduplicate=false            (different from default 'true')
c   --elim=false                   (different from default 'true')
c   --probe=false                  (different from default 'true')
c   --reduce=false                 (different from default 'true')
c   --subsume=false                (different from default 'true')
c   --ternary=false                (different from default 'true')
c   --transred=false               (different from default 'true')
c   --vivify=false                 (different from default 'true')
c 
c --- [ solving ] ------------------------------------------------------------
c 
c time measured in process time since initialization
c 
c  seconds  reductions  redundant  irredundant
c         MB    restarts       trail       variables
c          level   conflicts       glue          remaining
c 
c *  0.09 83  0 0   0    0    0  0% 0 503947 136234 75%
c {  0.12 85  0 0   0    0    0  0% 0 503947 136234 75%
c i  0.21 86 79 0  21  340  297 53% 3 503947 136210 75%
c i  0.22 86 75 0  23  374  327 52% 3 503947 136202 75%
c }  0.25 87 124 0  23  407  359 55% 3 503947 136202 75%
c 1  0.25 87 124 0  23  407  359 55% 3 503947 136202 75%
c 
c --- [ result ] -------------------------------------------------------------
c 
s SATISFIABLE
v -1 -2 -3 4 5 -6 7 8 -9 -10 -11 -12 -13 -14 -15 16 -17 -18 19 20 -21 -22 -23
v 24 25 -26 -27 -28 -29 -30 -31 -32 -33 -34 -35 36 -37 -38 39 -40 -41 -42 43
v -44 45 -46 -47 -48 49 50 -51 -52 -53 -54 -55 -56 -57 -58 59 60 -61 -62 -63
v -64 65 -66 -67 -68 69 70 -71 72 -73 74 75 -76 -77 78 79 80 81 -82 -83 -84
v -85 86 87 88 -89 90 -91 -92 -93 94 95 96 97 98 99 100 101 -102 103 -104 -105
v 106 -107 -108 -109 -110 111 -112 -113 -114 115 116 117 118 -119 -120 -121
v -122 -123 124 125 126 127 -128 -129 -130 -131 132 -133 -134 135 -136 -137
v -138 139 140 141 -142 -143 144 -145 -146 -147 -148 149 -150 -151 -152 153
v 154 155 -156 157 158 159 -160 161 162 -163 -164 165 166 167 168 169 -170 171
v -172 173 -174 175 -176 -177 -178 179 -180 181 -182 183 -184 -185 -186 -187
v 188 189 190 191 -192 -193 -194 -195 -196 -197 -198 199 -200 201 -202 203
v -204 205 -206 207 -208 209 -210 211 212 -213 -214 -215 -216 -217 218 219
v -220 -221 -222 -223 -224 225 226 -227 228 229 -230 231 -232 233 -234 235
v -236 237 -238 239 -240 241 -242 243 244 -245 -246 -247 248 -249 -250 -251
v -252 253 -254 255 -256 257 -258 259 -260 261 -262 -263 -264 -265 266 -267
v 268 269 -270 271 272 -273 274 275 276 -277 -278 -279 -280 -281 -282 283 -284
v -285 286 -287 -288 -289 -290 -291 -292 293 294 295 296 -297 -298 -299 -300
v -301 -302 -303 -304 -305 -306 -307 -308 -309 -310 -311 -312 -313 -314 -315
v -316 -317 -318 -319 -320 -321 -322 -323 -324 -325 -326 -327 -328 -329 -330
v -331 -332 -333 -334 -335 -336 -337 -338 -339 -340 -341 -342 -343 -344 -345
v -346 -347 -348 -349 -350 -351 -352 -353 -354 -355 -356 -357 -358 -359 -360
v -361 -362 -363 -364 -365 -366 -367 -368 -369 -370 -371 -372 -373 -374 -375
v -376 -377 -378 -379 -380 -381 -382 -383 -384 -385 -386 -387 -388 -389 -390
v -391 -392 -393 -394 -395 -396 -397 -398 -399 -400 -401 -402 -403 -404 -405
v -406 -407 -408 -409 -410 -411 -412 -413 -414 -415 -416 -417 -418 -419 -420
v -421 -422 -423 -424 -425 -426 -427 -428 -429 -430 -431 -432 -433 -434 -435
v -436 -437 -438 -439 -440 -441 -442 -443 -444 -445 -446 -447 -448 -449 -450
v -451 -452 -453 -454 -455 -456 -457 -458 -459 -460 -461 -462 -463 -464 -465
v -466 -467 -468 -469 -470 -471 -472 -473 -474 -475 -476 -477 -478 -479 -480
v -481 -482 -483 -484 -485 -486 -487 -488 -489 -490 -491 -492 -493 -494 -495
v -496 -497 -498 -499 -500 -501 -502 -503 -504 -505 -506 -507 -508 -509 -510
v -511 -512 -513 -514 -515 -516 -517 -518 -519 -520 -521 -522 -523 -524 -525
v -526 -527 -528 -529 -530 -531 -532 -533 -534 -535 -536 -537 -538 -539 -540
v -541 -542 -543 -544 -545 -546 -547 -548 -549 -550 -551 -552 -553 -554 -555
v -556 -557 -558 -559 -560 -561 -562 -563 -564 -565 -566 -567 -568 -569 -570
v -571 -572 -573 -574 -575 -576 -577 -578 -579 -580 -581 -582 -583 -584 -585
v -586 -587 -588 -589 -590 -591 -592 -593 -594 -595 -596 -597 -598 -599 -600
v -601 -602 -603 -604 -605 -606 -607 -608 -609 -610 -611 -612 -613 -614 -615
v -616 -617 -618 -619 -620 -621 -622 -623 -624 -625 -626 -627 -628 -629 -630
v -631 -632 -633 -634 -635 -636 -637 -638 -639 -640 -641 -642 -643 -644 -645
v -646 -647 -648 -649 -650 -651 -652 -653 -654 -655 -656 -657 -658 -659 -660
v -661 -662 -663 -664 -665 -666 -667 -668 -669 -670 -671 -672 -673 -674 -675
v -676 -677 -678 -679 -680 -681 -682 -683 -684 -685 -686 -687 -688 -689 -690
v -691 -692 -693 -694 -695 696 -697 -698 -699 -700 -701 -702 -703 -704 -705
... skipped 17132 lines ...
v -180544 -180545 -180546 -180547 -180548 180549 -180550 -180551 -180552
v 180553 180554 -180555 -180556 -180557 -180558 -180559 -180560 -180561
v -180562 -180563 -180564 -180565 180566 -180567 180568 180569 -180570 -180571
v -180572 -180573 -180574 -180575 -180576 -180577 -180578 180579 -180580
v -180581 -180582 180583 180584 -180585 -180586 -180587 -180588 -180589
v -180590 -180591 -180592 -180593 -180594 -180595 180596 -180597 180598 180599
v -180600 -180601 -180602 180603 180604 -180605 -180606 -180607 180608 180609
v -180610 -180611 -180612 180613 -180614 -180615 180616 -180617 180618 -180619
v -180620 180621 -180622 180623 180624 -180625 -180626 -180627 180628 180629
v -180630 -180631 -180632 180633 -180634 -180635 180636 -180637 180638 180639
v -180640 -180641 -180642 180643 -180644 -180645 180646 -180647 180648 180649
v -180650 -180651 -180652 180653 180654 -180655 -180656 -180657 180658 -180659
v -180660 180661 -180662 180663 -180664 -180665 180666 -180667 180668 -180669
v -180670 180671 -180672 180673 180674 -180675 -180676 -180677 180678 -180679
v -180680 180681 -180682 180683 -180684 -180685 180686 -180687 180688 -180689
v -180690 180691 -180692 180693 -180694 -180695 180696 -180697 180698 180699
v -180700 -180701 -180702 180703 180704 -180705 -180706 -180707 180708 -180709
v -180710 180711 -180712 180713 -180714 -180715 180716 -180717 180718 -180719
v -180720 180721 -180722 180723 -180724 -180725 180726 -180727 180728 -180729
v -180730 180731 -180732 180733 -180734 -180735 180736 -180737 180738 -180739
v -180740 180741 -180742 180743 -180744 -180745 180746 -180747 180748 180749
v -180750 -180751 -180752 180753 180754 -180755 -180756 -180757 180758 -180759
v -180760 180761 -180762 180763 -180764 -180765 180766 -180767 180768 -180769
v -180770 180771 -180772 180773 180774 -180775 -180776 -180777 180778 -180779
v -180780 180781 -180782 180783 180784 -180785 -180786 -180787 180788 -180789
v -180790 180791 -180792 180793 -180794 -180795 180796 -180797 180798 180799
v -180800 -180801 -180802 -180803 180804 -180805 -180806 -180807 180808
v -180809 -180810 180811 -180812 180813 -180814 -180815 180816 -180817 180818
v 180819 -180820 -180821 -180822 180823 -180824 -180825 180826 -180827 180828
v -180829 -180830 180831 -180832 180833 -180834 -180835 180836 -180837 180838
v -180839 -180840 180841 -180842 180843 -180844 -180845 180846 -180847 180848
v -180849 -180850 180851 -180852 180853 -180854 -180855 180856 -180857 180858
v -180859 -180860 180861 -180862 180863 -180864 -180865 180866 -180867 180868
v -180869 -180870 180871 -180872 180873 180874 -180875 -180876 -180877 180878
v 180879 -180880 -180881 -180882 180883 -180884 -180885 180886 -180887 180888
v -180889 -180890 180891 -180892 180893 -180894 -180895 180896 -180897 180898
v 180899 -180900 -180901 -180902 180903 180904 -180905 -180906 -180907 180908
v -180909 -180910 180911 -180912 180913 180914 -180915 -180916 -180917 -180918
v 180919 -180920 -180921 -180922 180923 -180924 -180925 180926 -180927 180928
v -180929 -180930 180931 -180932 180933 -180934 -180935 180936 -180937 180938
v -180939 -180940 180941 -180942 180943 -180944 -180945 180946 -180947 180948
v -180949 -180950 180951 -180952 180953 -180954 -180955 180956 -180957 180958
v 180959 -180960 -180961 -180962 180963 180964 -180965 -180966 -180967 180968
v -180969 -180970 180971 -180972 180973 180974 -180975 -180976 -180977 180978
v 180979 -180980 -180981 -180982 180983 -180984 -180985 180986 -180987 180988
v -180989 -180990 180991 -180992 180993 -180994 180995 180996 -180997 180998
v 180999 -181000 181001 -181002 181003 -181004 181005 -181006 -181007 -181008
v 181009 -181010 -181011 -181012 -181013 181014 -181015 -181016 -181017 181018
v -181019 -181020 -181021 181022 -181023 -181024 -181025 181026 -181027
v -181028 -181029 181030 -181031 -181032 -181033 181034 -181035 -181036
v -181037 181038 -181039 -181040 -181041 181042 -181043 -181044 -181045 181046
v -181047 -181048 -181049 181050 -181051 -181052 -181053 181054 -181055
v -181056 -181057 181058 -181059 -181060 -181061 181062 -181063 -181064
v -181065 181066 -181067 -181068 -181069 181070 -181071 181072 -181073 181074
v 181075 -181076 0
c 
c --- [ run-time profiling ] -------------------------------------------------
c 
c process time taken by individual solving procedures
c (percentage relative to process time for solving)
c 
c         0.16   99.92% search
c         0.13   81.17% unstable
c         0.09   54.96% parse
c         0.03   18.72% lucky
c         0.00    0.00% simplify
c   =================================
c         0.16   62.19% solve
c 
c last line shows process time for solving
c (percentage relative to total process time)
c 
c --- [ statistics ] ---------------------------------------------------------
c 
c chronological:               249        61.18 %  of conflicts
c conflicts:                   407      2577.22    per second
c decisions:                  3063     19395.65    per second
c fixed:                     44874        24.78 %  of all variables
c learned:                     367        90.17 %  per conflict
c learned_lits:               3739       100.00 %  learned literals
c minimized:                     0         0.00 %  learned literals
c shrunken:                    608        16.26 %  learned literals
c minishrunken:                263         7.03 %  learned literals
c otfs:                          6         1.47 %  of conflict
c propagations:            1255660         7.95 M  per second
c restarts:                     23        17.70    interval
c subsumed:                      6         0.00 %  of all clauses
c strengthened:                  6         0.00 %  of all clauses
c 
c seconds are measured in process time for solving
c 
c --- [ resources ] ----------------------------------------------------------
c 
c total process time since initialization:         0.25    seconds
c total real time since initialization:            0.26    seconds
c maximum resident set size of process:           85.12    MB
c 
c --- [ shutting down ] ------------------------------------------------------
c 
c exit 10
